100 10
269 778
301 528
380 753
513 569
665 650
764 902
713 416
738 474
418 669
200 651
393 416
417 235
398 587
432 836
566 765
532 589
280 531
261 629
855 739
601 492
759 940
751 500
358 808
773 745
400 777
723 887
591 531
504 929
193 678
498 561
453 800
534 760
511 375
301 501
353 805
565 891
627 891
413 351
285 477
549 480
634 685
384 87
707 744
391 473
132 449
681 447
260 215
488 700
582 868
209 174
777 819
246 586
641 464
225 72
183 548
604 588
342 725
536 433
504 171
371 490
421 684
554 464
262 614
409 448
483 820
257 561
607 550
330 587
300 69
375 969
807 562
464 570
505 474
428 951
542 149
374 303
527 226
600 719
554 695
383 677
235 304
548 577
209 671
296 919
455 466
505 503
557 816
537 702
381 685
362 297
484 626
351 726
354 610
540 502
770 313
490 634
726 499
249 546
459 279
722 763
